Ti6 Sn6 H6 S18
1.0
  11.6999999999999993    0.0000000000000000    0.0000000000000007
  -0.0000000000000009   14.0399999999999991    0.0000000000000009
   0.0000000000000000    0.0000000000000000    3.8999999999999999
Sn Ti S H S
6 6 12 6 6
direct
   0.0000000000000000    0.0000000000000000    0.0000000000000000 Sn
   0.0000000000000000    0.3333333333333333    0.0000000000000000 Sn
   0.0000000000000000    0.6666666666666666    0.0000000000000000 Sn
   0.5000000000000000    0.0000000000000000    0.0000000000000000 Sn
   0.5000000000000000    0.3333333333333333    0.0000000000000000 Sn
   0.4999999999999999    0.6666666666666666    0.0000000000000000 Sn
   0.2500000000000000    0.1666666666666667    0.5000000000000000 Ti
   0.2500000000000000    0.5000000000000000    0.4999999999999999 Ti
   0.2500000000000000    0.8333333333333333    0.5000000000000001 Ti
   0.7499999999999999    0.1666666666666667    0.5000000000000000 Ti
   0.7499999999999999    0.5000000000000000    0.5000000000000001 Ti
   0.7500000000000000    0.8333333333333333    0.5000000000000000 Ti
   0.2500000000000000    0.1666666666666667    0.0000000000000000 S
   0.2500000000000000    0.5000000000000000    0.0000000000000000 S
   0.2500000000000000    0.8333333333333333    0.0000000000000000 S
   0.7499999999999999    0.1666666666666667    0.0000000000000000 S
   0.7499999999999999    0.5000000000000000    0.0000000000000000 S
   0.7500000000000000    0.8333333333333333    0.0000000000000000 S
   0.0000000000000000    0.1666666666666667    0.5000000000000001 S
   0.0000000000000000    0.5000000000000000    0.5000000000000000 S
   0.0000000000000000    0.8333333333333333    0.5000000000000001 S
   0.5000000000000000    0.1666666666666667    0.5000000000000001 S
   0.5000000000000000    0.5000000000000000    0.5000000000000001 S
   0.4999999999999999    0.8333333333333333    0.5000000000000001 S
   0.1250000000000000    0.0833333333333333    0.2500000000000000 H
   0.1250000000000000    0.4166666666666666    0.2500000000000001 H
   0.1250000000000000    0.7500000000000000    0.2500000000000001 H
   0.6250000000000000    0.0833333333333333    0.2500000000000001 H
   0.6250000000000000    0.4166666666666666    0.2500000000000000 H
   0.6249999999999999    0.7500000000000000    0.2500000000000000 H
   0.2500000000000000    0.0000000000000000    0.5000000000000001 S
   0.2500000000000000    0.3333333333333333    0.5000000000000000 S
   0.2500000000000000    0.6666666666666666    0.5000000000000001 S
   0.7499999999999999    0.0000000000000000    0.5000000000000001 S
   0.7499999999999999    0.3333333333333333    0.5000000000000001 S
   0.7499999999999999    0.6666666666666666    0.5000000000000000 S
