ALGO = All
EDIFF = 1e-05
ENAUG = 1360.0
ENCUT = 680.0
GGA = Pe
HFSCREEN = 0.2
ISMEAR = -5
ISPIN = 2
LAECHG = True
LASPH = True
LCHARG = True
LELF = True
LHFCALC = True
LMIXTAU = True
LORBIT = 11
LREAL = False
LVTOT = True
LWAVE = False
MAGMOM = 2*0.0
NELM = 200
NSW = 0
PREC = Accurate
PRECFOCK = Fast
SIGMA = 0.05
