Si2
1.0
   3.3294085500000001    0.0000000000000000    1.9222347600000000
   1.1098025199999999    3.1389971600000002    1.9222347600000000
   0.0000000000000000    0.0000000000000000    3.8444704999999999
Si
2
direct
   0.2500000000000000    0.2500000000000000    0.2500000000000000 Si
  -0.0000000000000000   -0.0000000000000000   -0.0000000000000000 Si
