Si2                                     
    1.000000000000000     
     3.3496744307422048    0.0000000000000000    1.9339351614767313
     1.1165581435807350    3.1581045923790994    1.9339351614767313
     0.0000000000000000    0.0000000000000000    3.8678703229534626
   Si
     2
Direct
  0.8750000000000000  0.8750000000000000  0.8750000000000000
  0.1250000000000000  0.1250000000000000  0.1250000000000000
 
  0.00000000E+00  0.00000000E+00  0.00000000E+00
  0.00000000E+00  0.00000000E+00  0.00000000E+00
